%rwf=Oxalate.rwf
%chk=Oxalate.chk
%mem=3000MB
%nprocshared=2
# opt ub3lyp/6-31g(d,p) geom=printinputorient integral=grid=ultrafine
scf=maxcycle=512

CLR

0 6
 H                 -5.05605600   -4.44621100    0.35446300
 C                 -5.24774200   -3.82332600   -0.52603500
 H                 -6.22922300   -4.10309600   -0.92076000
 C                 -5.20795000   -2.32398500   -0.17959100
 H                 -5.43164100   -1.73547500   -1.07510300
 H                 -6.00545700   -2.09470300    0.54071500
 C                 -3.88961500   -1.85539100    0.35213500
 N                 -3.36845900   -2.26906200    1.56923400
 H                 -3.81268100   -2.89478700    2.22409100
 C                 -2.16055200   -1.66941400    1.74413900
 H                 -1.52289900   -1.82446000    2.60093200
 N                 -1.86983600   -0.89574400    0.71523600
 C                 -2.93728200   -1.00688800   -0.15438200
 H                 -2.95677600   -0.46279900   -1.08645700
 H                 -4.49190800   -4.06939900   -1.27737900
 H                 -4.77653000    2.94114500   -2.98596500
 C                 -4.29910600    3.92153400   -3.07517800
 H                 -5.08413400    4.67808200   -3.17025700
 C                 -3.40774400    4.21078900   -1.85398100
 H                 -2.98045600    5.21884500   -1.94554700
 H                 -4.02070800    4.22549800   -0.94716900
 C                 -2.31332400    3.21163700   -1.64539300
 N                 -1.24599300    3.05541500   -2.52039000
 H                 -1.07415900    3.60097800   -3.35111600
 C                 -0.43421800    2.07538600   -2.04798700
 H                  0.50996000    1.76429800   -2.48470000
 N                 -0.92227900    1.58237900   -0.92160300
 C                 -2.08646000    2.28314200   -0.66311700
 H                 -2.67317300    2.08855900    0.22153700
 H                 -3.72185900    3.92521700   -4.00618200
 H                  6.03536900    3.89755600    1.09315900
 C                  5.89242200    3.09852000    0.35748900
 H                  6.48820600    2.23766000    0.68382700
 C                  4.41376800    2.72604900    0.21506100
 H                  4.00778900    2.40417700    1.17870200
 H                  3.83810700    3.61501900   -0.07484000
 C                  4.17434200    1.61239600   -0.81057900
 H                  4.52932400    1.90360500   -1.80482100
 H                  4.75357800    0.72393600   -0.51797400
 C                  2.71266800    1.16842200   -0.94128300
 O                  2.04899800    1.10583400    0.15813200
 O                  2.27218200    0.88118000   -2.07522700
 H                  6.31277800    3.44502500   -0.59426100
 H                  4.28696000   -5.01473600   -1.52806300
 C                  4.13051500   -4.45538400   -2.45707300
 H                  4.55991200   -5.04446600   -3.27346400
 C                  2.63706000   -4.18077600   -2.71019200
 H                  2.52005600   -3.64477900   -3.65726400
 H                  2.10567700   -5.13516800   -2.83296900
 C                  1.98047700   -3.36023300   -1.64473700
 N                  1.79573800   -3.81006800   -0.34314600
 H                  2.07889500   -4.70683200    0.02102200
 C                  1.21029900   -2.81680500    0.37445100
 H                  0.99106800   -2.86849200    1.43017500
 N                  0.99945600   -1.75963200   -0.38796800
 C                  1.47856000   -2.08412300   -1.64364300
 H                  1.48745300   -1.34868600   -2.43339500
 H                  4.68846800   -3.51825300   -2.37777400
 Mn                 0.22124800    0.19947000    0.45813100
 C                  0.55686300   -0.01872700    3.46164600
 C                  0.04727400    1.42805600    3.20461100
 O                  0.59275900   -0.75843400    2.43312600
 O                  0.82255700   -0.26545100    4.64923400
 O                 -0.32479500    1.82278100    2.10901300
 O                  0.02824600    2.16014000    4.30622300
 H                  0.37136000    1.51930300    4.98188400

