%Chk=5vg3_small_opt.chk
%Mem=3000MB
%NProcShared=2
# B3LYP/6-31G* Geom=PrintInputOrient Integral=(Grid=UltraFine) Opt
 
CLR
 
0  2
H          32.878   11.029   78.851
C          33.377   10.966   79.818
H          33.451   11.974   80.227
C          32.584   10.068   80.778
H          32.992   10.110   81.782
H          31.550   10.406   80.836
C          32.609    8.622   80.396
N          31.726    8.074   79.490
H          31.038    8.588   78.961
C          31.999    6.791   79.327
H          31.495    6.117   78.648
N          33.032    6.484   80.096
C          33.430    7.611   80.777
H          34.258    7.698   81.462
H          34.384   10.570   79.689
H          38.272    8.321   82.603
C          38.538    7.960   83.596
H          38.408    8.760   84.324
C          37.692    6.767   84.031
H          38.219    6.136   84.744
H          36.808    7.150   84.542
C          37.221    5.929   82.892
N          38.078    5.200   82.098
H          39.082    5.125   82.222
C          37.379    4.579   81.161
H          37.792    3.937   80.395
N          36.104    4.883   81.323
C          35.980    5.734   82.393
H          35.061    6.134   82.793
H          39.594    7.690   83.609
H          39.657    0.921   79.458
C          38.708    0.391   79.374
H          38.524   -0.213   80.263
C          37.562    1.395   79.234
H          37.452    1.877   80.201
H          37.837    2.152   78.501
C          36.198    0.813   78.822
H          36.278    0.321   77.852
H          35.881    0.078   79.564
C          35.146    1.916   78.718
O          35.215    2.845   79.538
O          34.261    1.874   77.829
H          38.734   -0.260   78.500
H          35.409    9.270   75.508
C          34.847    8.617   74.840
H          34.947    9.015   73.830
C          35.395    7.188   74.897
H          34.772    6.518   74.305
H          36.390    7.175   74.449
C          35.498    6.645   76.286
N          36.601    6.864   77.082
H          37.427    7.384   76.811
C          36.415    6.273   78.250
H          37.116    6.282   79.071
N          35.230    5.687   78.240
C          34.638    5.902   77.021
H          33.672    5.538   76.703
H          33.786    8.631   75.087
Mn         34.180    4.575   79.852
C          33.256    3.149   79.238
C          33.412    3.487   80.732
O          34.075    3.662   78.366
O          32.306    2.350   78.847
O          34.331    4.260   81.110
O          32.512    2.923   81.690
H          32.538    3.095   82.729
 
 
