%Chk=5vg3_large_mk.chk
%Mem=3000MB
%NProcShared=2
# B3LYP/6-31G* Integral=(Grid=UltraFine) Opt Pop(MK,ReadRadii)
IOp(6/33=2,6/42=6)
 
CLR
 
0  2
H       0   29.834   11.430   77.182
C      -1   30.887   11.676   77.048
H       0   31.345   10.885   76.454
H       0   30.950   12.622   76.509
C      -1   31.610   11.795   78.387
O      -1   31.196   12.554   79.272
N      -1   32.709   11.050   78.525
H       0   33.023   10.450   77.774
C      -1   33.377   10.966   79.818
H       0   33.451   11.973   80.227
C      -1   32.584   10.068   80.778
H       0   32.992   10.110   81.782
H       0   31.550   10.406   80.836
C      -1   32.609    8.622   80.396
N      -1   31.726    8.074   79.490
H       0   31.038    8.588   78.961
C      -1   31.999    6.791   79.327
H       0   31.495    6.117   78.648
N      -1   33.032    6.484   80.096
C      -1   33.430    7.611   80.777
H       0   34.258    7.698   81.462
C      -1   34.784   10.413   79.638
O      -1   35.174    9.979   78.554
N      -1   35.543   10.421   80.734
H       0   35.185   10.813   81.596
C      -1   36.853    9.779   80.748
H       0   36.839    8.948   80.042
H       0   37.641   10.463   80.433
C      -1   37.096    9.188   82.133
O      -1   36.342    9.442   83.083
N      -1   38.183    8.443   82.268
H       0   38.806    8.269   81.492
C      -1   38.538    7.960   83.596
H       0   38.408    8.760   84.324
C      -1   37.692    6.767   84.031
H       0   38.219    6.136   84.744
H       0   36.808    7.150   84.542
C      -1   37.221    5.929   82.892
N      -1   38.078    5.200   82.098
H       0   39.082    5.125   82.222
C      -1   37.379    4.579   81.161
H       0   37.792    3.937   80.395
N      -1   36.104    4.883   81.323
C      -1   35.980    5.734   82.393
H       0   35.061    6.134   82.793
C      -1   40.002    7.586   83.614
O      -1   40.652    7.452   82.575
N      -1   40.502    7.398   84.830
H       0   39.911    7.468   85.645
C      -1   41.923    7.129   84.999
H       0   42.494    7.881   84.454
H       0   42.206    7.179   86.050
C      -1   42.306    5.777   84.418
O      -1   43.422    5.615   83.912
N      -1   41.392    4.815   84.450
H       0   40.501    4.991   84.891
C      -1   41.667    3.460   84.013
H       0   42.682    3.177   84.291
H       0   40.971    2.775   84.497
C      -1   41.497    3.338   82.503
O      -1   40.686    4.040   81.891
N      -1   42.273    2.435   81.907
H       0   42.922    1.887   82.457
C      -1   41.966    1.975   80.560
H       0   41.795    2.837   79.915
H       0   42.798    1.395   80.160
C      -1   40.720    1.095   80.596
O      -1   40.429    0.433   81.603
N      -1   39.978    1.100   79.487
H       0   40.291    1.632   78.686
C      -1   38.708    0.391   79.374
H       0   38.524   -0.212   80.262
C      -1   37.562    1.395   79.234
H       0   37.452    1.877   80.201
H       0   37.837    2.152   78.501
C      -1   36.198    0.813   78.822
H       0   36.278    0.321   77.852
H       0   35.881    0.078   79.564
C      -1   35.146    1.916   78.718
O      -1   35.215    2.845   79.538
O      -1   34.261    1.874   77.829
C      -1   38.744   -0.517   78.154
O      -1   39.087   -0.074   77.056
N      -1   38.410   -1.779   78.362
H       0   38.161   -2.065   79.297
C      -1   38.259   -2.771   77.312
H       0   38.531   -2.355   76.342
H       0   38.903   -3.622   77.535
H       0   37.216   -3.088   77.311
H       0   38.592   10.627   76.316
H       0   37.376   11.818   76.369
C      -1   37.516   10.740   76.448
H       0   37.210   10.384   77.432
C      -1   36.748   10.032   75.350
O      -1   37.173    9.970   74.192
N      -1   35.597    9.488   75.731
H       0   35.280    9.587   76.685
C      -1   34.847    8.617   74.840
H       0   34.947    9.014   73.834
C      -1   35.395    7.188   74.897
H       0   34.772    6.518   74.305
H       0   36.390    7.175   74.449
C      -1   35.498    6.645   76.286
N      -1   36.601    6.864   77.082
H       0   37.427    7.384   76.811
C      -1   36.415    6.273   78.250
H       0   37.116    6.282   79.071
N      -1   35.230    5.687   78.240
C      -1   34.638    5.902   77.021
H       0   33.672    5.538   76.703
C      -1   33.362    8.637   75.186
O      -1   32.930    9.193   76.198
N      -1   32.586    8.021   74.302
H       0   33.001    7.596   73.483
C      -1   31.149    7.897   74.477
H       0   30.903    7.843   75.538
H       0   30.628    8.745   74.033
H       0   30.821    6.978   73.990
Mn     -1   34.180    4.575   79.852
C      -1   33.256    3.149   79.238
C      -1   33.412    3.487   80.732
O      -1   34.075    3.662   78.366
O      -1   32.306    2.350   78.847
O      -1   34.331    4.260   81.110
O      -1   32.512    2.923   81.690
H       0   32.538    3.095   82.729
 
Mn 1.444
 
Mn 1.444
 
 
